p tw 53 110
5 14
5 9
5 12
5 10
5 13
10 16
10 15
1 19
1 7
1 8
1 23
1 24
1 16
6 8
6 53
6 25
2 6
2 20
2 17
2 24
8 17
8 13
4 15
4 19
4 12
4 23
37 49
37 48
37 43
25 51
52 53
14 25
14 20
14 16
29 43
21 24
33 45
33 36
33 50
33 40
33 49
28 45
28 35
28 29
28 36
9 21
9 14
13 17
41 45
41 46
41 47
45 51
32 42
32 45
32 38
32 44
32 53
34 43
34 39
34 52
34 36
34 45
27 34
27 47
27 44
27 45
7 19
7 11
7 9
7 10
7 20
39 50
3 14
3 22
3 10
3 15
35 37
35 38
35 41
35 49
18 25
16 52
16 24
16 25
31 32
31 34
31 50
11 24
11 22
11 17
11 14
11 18
43 45
43 44
43 49
26 45
26 30
26 46
26 38
26 29
26 48
36 37
36 49
36 48
30 47
30 34
30 45
19 22
15 20
15 21
